Version identifier: 12.10.0.0 | 2019-11-26 | 843d4de
CPXPARAM_WorkMem                                 28672
Tried aggregator 2 times.
MIP Presolve modified 64 coefficients.
Aggregator did 20 substitutions.
Reduced MIP has 94 rows, 120 columns, and 448 nonzeros.
Reduced MIP has 120 binaries, 0 generals, 0 SOSs, and 0 indicators.
Presolve time = 0,00 sec. (0,56 ticks)
Found incumbent of value 80,000000 after 0,00 sec. (1,09 ticks)
Probing time = 0,00 sec. (0,15 ticks)
Tried aggregator 1 time.
Detecting symmetries...
MIP Presolve eliminated 12 rows and 0 columns.
MIP Presolve added 24 rows and 0 columns.
Reduced MIP has 106 rows, 120 columns, and 460 nonzeros.
Reduced MIP has 120 binaries, 0 generals, 0 SOSs, and 0 indicators.
Presolve time = 0,00 sec. (0,56 ticks)
Probing time = 0,00 sec. (0,14 ticks)
Clique table members: 290.
MIP emphasis: balance optimality and feasibility.
MIP search method: dynamic search.
Parallel mode: deterministic, using up to 16 threads.
Root relaxation solution time = 0,00 sec. (0,39 ticks)

        Nodes                                         Cuts/
   Node  Left     Objective  IInf  Best Integer    Best Bound    ItCnt     Gap

*     0+    0                           80,0000        0,0000           100,00%
*     0+    0                           53,0000        0,0000           100,00%
*     0+    0                           51,0000        0,0000           100,00%
      0     0       24,6833    65       51,0000       24,6833       62   51,60%
      0     0       24,6833    65       51,0000     Cuts: 127      121   51,60%
      0     0       25,0434    65       51,0000     Cuts: 111      194   50,90%
      0     0       27,5278    65       51,0000      Cuts: 78      298   46,02%
      0     0       27,6667    65       51,0000      Cuts: 79      321   45,75%
      0     0       28,0000    65       51,0000      Cuts: 21      332   45,10%
      0     0       35,4512    65       51,0000     Cuts: 110      463   30,49%
      0     0       36,6949    65       51,0000      Cuts: 48      495   28,05%
      0     0       37,4708    65       51,0000      Cuts: 24      518   26,53%
      0     0       37,7661    65       51,0000       Cuts: 9      537   25,95%
      0     0       38,3006    65       51,0000      Cuts: 25      554   24,90%
      0     0       38,4200    65       51,0000      Cuts: 15      574   24,67%
      0     0       38,4672    65       51,0000      Cuts: 28      591   24,57%
      0     0       38,6571    65       51,0000      Cuts: 28      621   24,20%
      0     0       38,7012    65       51,0000      Cuts: 23      638   24,12%
      0     0       38,7252    65       51,0000      Cuts: 19      654   24,07%
      0     0       38,8821    65       51,0000      Cuts: 31      677   23,76%
      0     0       38,9303    65       51,0000      Cuts: 21      701   23,67%
      0     0       38,9367    65       51,0000      Cuts: 12      712   23,65%
*     0+    0                           49,0000       38,9367            20,54%
      0     0        cutoff             49,0000       49,0000      712    0,00%
Elapsed time = 0,15 sec. (52,30 ticks, tree = 0,01 MB, solutions = 4)

GUB cover cuts applied:  14
Clique cuts applied:  22
Cover cuts applied:  30
Mixed integer rounding cuts applied:  12
Zero-half cuts applied:  20
Gomory fractional cuts applied:  2

Root node processing (before b&c):
  Real time             =    0,15 sec. (52,31 ticks)
Parallel b&c, 16 threads:
  Real time             =    0,00 sec. (0,00 ticks)
  Sync time (average)   =    0,00 sec.
  Wait time (average)   =    0,00 sec.
                          ------------
Total (root+branch&cut) =    0,15 sec. (52,31 ticks)
